NAME : X_26_seed_123_id_7
TYPE : CVRP
DIMENSION : 219
EDGE_WEIGHT_TYPE : EUC_2D
CAPACITY : 3
NODE_COORD_SECTION
1	0	0
2	346	14
3	970	857
4	326	677
5	983	90
6	470	130
7	302	639
8	529	139
9	944	643
10	529	788
11	854	718
12	598	216
13	781	308
14	66	918
15	398	248
16	36	197
17	422	628
18	700	903
19	458	470
20	656	795
21	490	318
22	598	144
23	708	201
24	913	698
25	563	470
26	347	112
27	489	916
28	619	715
29	961	820
30	678	632
31	919	648
32	437	536
33	72	279
34	142	790
35	913	349
36	520	886
37	633	91
38	857	906
39	686	474
40	523	28
41	437	490
42	422	9
43	741	867
44	724	490
45	517	980
46	432	1000
47	352	522
48	676	662
49	733	594
50	324	369
51	14	510
52	985	866
53	959	825
54	684	737
55	500	506
56	399	53
57	975	366
58	162	13
59	53	603
60	481	232
61	171	464
62	327	857
63	426	278
64	71	512
65	978	579
66	563	46
67	346	332
68	785	964
69	683	303
70	401	660
71	320	276
72	26	927
73	376	502
74	378	376
75	659	505
76	429	192
77	19	925
78	451	401
79	838	143
80	977	32
81	219	375
82	931	785
83	666	598
84	225	394
85	122	548
86	682	965
87	789	737
88	160	619
89	350	737
90	488	906
91	799	892
92	969	133
93	211	282
94	268	708
95	170	897
96	474	230
97	50	749
98	193	464
99	982	970
100	505	693
101	98	215
102	685	207
103	582	266
104	955	675
105	246	7
106	154	427
107	794	813
108	710	430
109	625	898
110	301	261
111	639	826
112	913	192
113	2	194
114	532	897
115	870	328
116	906	39
117	650	653
118	617	606
119	640	40
120	20	849
121	18	879
122	311	939
123	489	255
124	71	4
125	56	575
126	556	74
127	466	512
128	256	402
129	317	75
130	224	281
131	871	652
132	596	57
133	495	128
134	175	971
135	379	689
136	991	106
137	272	239
138	600	874
139	226	622
140	370	164
141	639	665
142	331	679
143	268	339
144	942	40
145	733	944
146	376	877
147	924	62
148	31	672
149	389	78
150	643	862
151	562	654
152	480	302
153	339	608
154	657	806
155	73	642
156	225	24
157	987	180
158	47	762
159	378	212
160	270	259
161	666	611
162	221	394
163	107	920
164	498	639
165	441	157
166	34	475
167	477	12
168	116	683
169	536	5
170	607	585
171	354	742
172	690	659
173	143	183
174	966	502
175	450	167
176	949	731
177	927	635
178	109	679
179	899	358
180	782	812
181	722	196
182	349	494
183	363	515
184	942	798
185	219	690
186	150	110
187	28	733
188	62	170
189	633	433
190	23	393
191	367	765
192	622	413
193	470	422
194	443	340
195	381	312
196	0	999
197	585	28
198	158	221
199	102	202
200	810	433
201	21	497
202	634	920
203	664	447
204	243	792
205	610	817
206	994	877
207	162	174
208	171	592
209	437	584
210	266	358
211	779	535
212	666	21
213	133	580
214	863	828
215	56	178
216	904	542
217	463	124
218	932	850
219	151	907
DEMAND_SECTION
1	0
2	1
3	1
4	1
5	1
6	1
7	1
8	1
9	1
10	1
11	1
12	1
13	1
14	1
15	1
16	1
17	1
18	1
19	1
20	1
21	1
22	1
23	1
24	1
25	1
26	1
27	1
28	1
29	1
30	1
31	1
32	1
33	1
34	1
35	1
36	1
37	1
38	1
39	1
40	1
41	1
42	1
43	1
44	1
45	1
46	1
47	1
48	1
49	1
50	1
51	1
52	1
53	1
54	1
55	1
56	1
57	1
58	1
59	1
60	1
61	1
62	1
63	1
64	1
65	1
66	1
67	1
68	1
69	1
70	1
71	1
72	1
73	1
74	1
75	1
76	1
77	1
78	1
79	1
80	1
81	1
82	1
83	1
84	1
85	1
86	1
87	1
88	1
89	1
90	1
91	1
92	1
93	1
94	1
95	1
96	1
97	1
98	1
99	1
100	1
101	1
102	1
103	1
104	1
105	1
106	1
107	1
108	1
109	1
110	1
111	1
112	1
113	1
114	1
115	1
116	1
117	1
118	1
119	1
120	1
121	1
122	1
123	1
124	1
125	1
126	1
127	1
128	1
129	1
130	1
131	1
132	1
133	1
134	1
135	1
136	1
137	1
138	1
139	1
140	1
141	1
142	1
143	1
144	1
145	1
146	1
147	1
148	1
149	1
150	1
151	1
152	1
153	1
154	1
155	1
156	1
157	1
158	1
159	1
160	1
161	1
162	1
163	1
164	1
165	1
166	1
167	1
168	1
169	1
170	1
171	1
172	1
173	1
174	1
175	1
176	1
177	1
178	1
179	1
180	1
181	1
182	1
183	1
184	1
185	1
186	1
187	1
188	1
189	1
190	1
191	1
192	1
193	1
194	1
195	1
196	1
197	1
198	1
199	1
200	1
201	1
202	1
203	1
204	1
205	1
206	1
207	1
208	1
209	1
210	1
211	1
212	1
213	1
214	1
215	1
216	1
217	1
218	1
219	1
DEPOT_SECTION
1
-1
EOF
